DIMENSION: 14
EDGE_WEIGHT_TYPE : EUC_2D
NODE_COORD_SECTION
1 45.00 98.00
2 11.00 2.00
3 66.00 94.00
4 49.00 43.00
5 95.00 24.00
6 82.00 63.00
7 24.00 44.00
8 95.00 48.00
9 28.00 84.00
10 17.00 55.00
11 45.00 38.00
12 63.00 22.00
13 89.00 66.00
14 50.00 75.00
TOUR_SECTION
1
9
10
7
2
11
4
12
5
8
13
6
14
3